# set custom thermo style
thermo		${T_freq}
# thermo_style custom step &
# epair ebond eangle c_angleE[1] c_angleE[2] c_angleE[3] &
# c_dnaMSD[4] c_ribosMSD[4]

thermo_style custom step &
epair ebond eangle c_dnaMSD[4] c_ribosMSD[4]
